NAME: test1784
TYPE: TSP
DIMENSION: 11
EDGE_WEIGHT_TYPE: EUC_2D
NODE_COORD_SECTION
1 72.13643955208192 0.3534404730801688
2 79.21570134531107 71.06428428813672
3 42.697379732508104 78.73465539966081
4 81.8331466135142 9.557413484058818
5 67.0691844114304 77.98350179984106
6 75.18672346484308 69.13065201483167
7 51.2126855242465 89.26481877785454
8 64.8342301794807 62.21958825830296
9 77.28748126654031 94.55238445304039
10 60.43397495292193 64.68277811532963
11 24.78873246064608 86.26949054441634
EOF
